 vasp.6.5.0 16Dec24 (build Jan 20 2025 08:45:31) gamma-only
 executed on        HPECrayEX_GCC date 2025.05.19  14:12:27

 INCAR:
   SYSTEM = TiO2
   NWRITE = 1     verbosity write-flag
   ISTART = 0     0-new 1-cont 2-samecut job
   ISPIN = 1     1-no, 2-yes
   PREC = Accurate   *
   NELM = 10       max.
   EDIFF = 1.0e-7    stopping-criterion for electronic upd.
   ENCUT = 750
   NSW = 0   *
   IBRION = -1   *  ionic relax: -1:no move
   POTIM = 0.5   *  for MD, timestep in femtoseconds, for relaxation, a step-size scaling factor
   ISMEAR = 0     *  part. occup.:-5 Blochl,-4 tet,-3,-2,-1-fermi,0-Gauss,>0MP
   SIGMA = 0.10   *  broadening in eV -4 tet -1-fermi 0-gauss
   IALGO = 48    * algorithm: use only 8 (CG) or 48 (RMM-DIIS)
   LREAL = .TRUE. * non-local projectors in real space+automatic optim
   GGA = 91
   LWAVE = .F.     * write WAVECAR
   LCHARG = .F.     * write CHGCAR and CHG
   LVTOT = .F.      * write the local potential LOCPOT
   LELF = .FALSE.   create ELFCAR file
   LPLANE = .TRUE.
   NSIM = 4
   NCORE = 64

 POTCAR:   PAW_GGA Ti_sv 07Sep2000
 POTCAR:   PAW_GGA O 05Jan2001
 POTCAR:   PAW_GGA Ti_sv 07Sep2000

 POTCAR:   PAW_GGA O 05Jan2001

 PAW_GGA Ti_sv 07Sep2000                :
 PAW_GGA O 05Jan2001                    :

 POSCAR: TeraGrid TiO2 Benchmark, Doubled in X di
  positions in cartesian coordinates
  velocities in cartesian coordinates

 exchange-correlation table for 91
   RHO(1)=    0.500       N(1)  =     2000
   RHO(2)=  100.500       N(2)  =     4000

 ion  position               nearest neighbor table
     1  0.000  0.000  0.268-   377 1.84   365 1.96   849 1.96   528 1.96  1012 1.96
     2  0.500  0.000  0.268-   378 1.84   527 1.96  1011 1.96   850 1.96   366 1.96
     3  0.083  0.000  0.268-   379 1.84   367 1.96   851 1.96   849 1.96   365 1.96
     4  0.583  0.000  0.268-   380 1.84   368 1.96   852 1.96   850 1.96   366 1.96
     5  0.042  0.167  0.256-   361 1.85   363 1.85   365 2.06   369 2.06   373 2.10   375 2.10
     6  0.542  0.167  0.256-   362 1.85   364 1.85   366 2.06   370 2.06   374 2.10   376 2.10
     7  0.125  0.167  0.256-   363 1.85   441 1.85   367 2.06   371 2.06   375 2.10   453 2.10
     8  0.625  0.167  0.256-   364 1.85   442 1.85   368 2.06   372 2.06   376 2.10   454 2.10
     9  0.000  0.167  0.377-   373 1.89   385 1.99   381 1.99   548 1.99   544 1.99   393 2.10
    10  0.500  0.167  0.377-   374 1.89   547 1.99   543 1.99   386 1.99   382 1.99   394 2.10
    11  0.083  0.167  0.377-   375 1.89   387 1.99   383 1.99   385 1.99   381 1.99   395 2.10
    12  0.583  0.167  0.377-   376 1.89   388 1.99   384 1.99   386 1.99   382 1.99   396 2.10
    13  0.042  0.000  0.384-   389 1.92   391 1.92   385 1.98   861 1.98   377 2.02   379 2.02
    14  0.542  0.000  0.384-   390 1.92   392 1.92   386 1.98   862 1.98   378 2.02   380 2.02
    15  0.125  0.000  0.384-   391 1.92   469 1.92   387 1.98   863 1.98   379 2.02   457 2.02
    16  0.625  0.000  0.384-   392 1.92   470 1.92   388 1.98   864 1.98   380 2.02   458 2.02
    17  0.000  0.000  0.500-   397 1.97   881 1.97   560 1.97  1044 1.97   409 2.01   389 2.01
    18  0.500  0.000  0.500-   559 1.97  1043 1.97   882 1.97   398 1.97   410 2.01   390 2.01
    19  0.083  0.000  0.500-   399 1.97   883 1.97   881 1.97   397 1.97   411 2.01   391 2.01
    20  0.583  0.000  0.500-   400 1.97   884 1.97   882 1.97   398 1.97   412 2.01   392 2.01
    21  0.042  0.167  0.500-   405 1.97   407 1.97   393 1.97   395 1.97   397 2.00   401 2.00
    22  0.542  0.167  0.500-   406 1.97   408 1.97   394 1.97   396 1.97   398 2.00   402 2.00
    23  0.125  0.167  0.500-   407 1.97   485 1.97   473 1.97   395 1.97   399 2.00   403 2.00
    24  0.625  0.167  0.500-   408 1.97   396 1.97   486 1.97   474 1.97   400 2.00   404 2.00
    25  0.000  0.167  0.623-   425 1.89   417 1.99   413 1.99   580 1.99   576 1.99   405 2.10
    26  0.500  0.167  0.623-   426 1.89   579 1.99   575 1.99   418 1.99   414 1.99   406 2.10
    27  0.083  0.167  0.623-   427 1.89   419 1.99   415 1.99   417 1.99   413 1.99   407 2.10
    28  0.583  0.167  0.623-   428 1.89   420 1.99   416 1.99   418 1.99   414 1.99   408 2.10
    29  0.042  0.000  0.616-   409 1.92   411 1.92   417 1.98   893 1.98   421 2.02   423 2.02
    30  0.542  0.000  0.616-   410 1.92   412 1.92   418 1.98   894 1.98   422 2.02   424 2.02
    31  0.125  0.000  0.616-   411 1.92   489 1.92   419 1.98   895 1.98   501 2.02   423 2.02
    32  0.625  0.000  0.616-   412 1.92   490 1.92   420 1.98   896 1.98   424 2.02   502 2.02
    33  0.000  0.000  0.732-   421 1.84   429 1.96   913 1.96   592 1.96  1076 1.96
    34  0.500  0.000  0.732-   422 1.84   591 1.96  1075 1.96   914 1.96   430 1.96
    35  0.083  0.000  0.732-   423 1.84   431 1.96   915 1.96   913 1.96   429 1.96
    36  0.583  0.000  0.732-   424 1.84   432 1.96   916 1.96   914 1.96   430 1.96
    37  0.042  0.167  0.744-   437 1.85   439 1.85   429 2.06   433 2.06   425 2.10   427 2.10
    38  0.542  0.167  0.744-   438 1.85   440 1.85   430 2.06   434 2.06   426 2.10   428 2.10
    39  0.125  0.167  0.744-   439 1.85   517 1.85   431 2.06   435 2.06   505 2.10   427 2.10
    40  0.625  0.167  0.744-   440 1.85   518 1.85   432 2.06   436 2.06   428 2.10   506 2.10
    41  0.167  0.000  0.268-   457 1.84   367 1.96   851 1.96   445 1.96   929 1.96
    42  0.667  0.000  0.268-   458 1.84   446 1.96   930 1.96   852 1.96   368 1.96
    43  0.250  0.000  0.268-   459 1.84   447 1.96   445 1.96   929 1.96   931 1.96
    44  0.750  0.000  0.268-   460 1.84   448 1.96   932 1.96   930 1.96   446 1.96
    45  0.208  0.167  0.256-   443 1.85   441 1.85   445 2.06   449 2.06   455 2.10   453 2.10
    46  0.708  0.167  0.256-   442 1.85   444 1.85   446 2.06   450 2.06   454 2.10   456 2.10
    47  0.292  0.167  0.256-   443 1.85   521 1.85   447 2.06   451 2.06   455 2.10   533 2.10
    48  0.792  0.167  0.256-   444 1.85   522 1.85   448 2.06   452 2.06   456 2.10   534 2.10
    49  0.167  0.167  0.377-   453 1.89   387 1.99   383 1.99   465 1.99   461 1.99   473 2.10
    50  0.667  0.167  0.377-   454 1.89   466 1.99   462 1.99   388 1.99   384 1.99   474 2.10
    51  0.250  0.167  0.377-   455 1.89   465 1.99   467 1.99   461 1.99   463 1.99   475 2.10
    52  0.750  0.167  0.377-   456 1.89   468 1.99   464 1.99   466 1.99   462 1.99   476 2.10
    53  0.208  0.000  0.384-   471 1.92   469 1.92   465 1.98   941 1.98   459 2.02   457 2.02
    54  0.708  0.000  0.384-   470 1.92   472 1.92   466 1.98   942 1.98   458 2.02   460 2.02
    55  0.292  0.000  0.384-   471 1.92   549 1.92   467 1.98   943 1.98   459 2.02   537 2.02
    56  0.792  0.000  0.384-   472 1.92   550 1.92   468 1.98   944 1.98   460 2.02   538 2.02
    57  0.167  0.000  0.500-   399 1.97   883 1.97   477 1.97   961 1.97   489 2.01   469 2.01
    58  0.667  0.000  0.500-   478 1.97   962 1.97   884 1.97   400 1.97   490 2.01   470 2.01
    59  0.250  0.000  0.500-   477 1.97   479 1.97   961 1.97   963 1.97   491 2.01   471 2.01
    60  0.750  0.000  0.500-   480 1.97   964 1.97   962 1.97   478 1.97   492 2.01   472 2.01
[...]
  1066  0.833  0.833  0.691-   346 1.89   358 2.10   320 2.10
  1067  0.417  0.833  0.691-   347 1.89   357 2.10   359 2.10
  1068  0.917  0.833  0.691-   348 1.89   360 2.10   358 2.10
  1069  0.375  0.729  0.744-   353 1.96   355 1.96   357 2.06
  1070  0.875  0.729  0.744-   354 1.96   356 1.96   358 2.06
  1071  0.458  0.729  0.744-   274 1.96   355 1.96   359 2.06
  1072  0.958  0.729  0.744-   356 1.96   273 1.96   360 2.06
  1073  0.375  0.938  0.744-   113 1.96   115 1.96   357 2.06
  1074  0.875  0.938  0.744-   114 1.96   116 1.96   358 2.06
  1075  0.458  0.938  0.744-    34 1.96   115 1.96   359 2.06
  1076  0.958  0.938  0.744-   116 1.96    33 1.96   360 2.06
  1077  0.333  0.833  0.784-   357 1.85   319 1.85
  1078  0.833  0.833  0.784-   358 1.85   320 1.85
  1079  0.417  0.833  0.784-   357 1.85   359 1.85
  1080  0.917  0.833  0.784-   360 1.85   358 1.85

IMPORTANT INFORMATION: All symmetrisations will be switched off!
NOSYMM: (Re-)initialisation of all symmetry stuff for point group C_1.

                                     Primitive cell

  volume of cell :   19527.7888

  direct lattice vectors                    reciprocal lattice vectors
    35.655696000  0.000000000  0.000000000     0.028046010  0.000000000  0.000000000
     0.000000000 19.745271000  0.000000000     0.000000000  0.050645038  0.000000000
     0.000000000  0.000000000 27.737100000     0.000000000  0.000000000  0.036052796

  length of vectors
    35.655696000 19.745271000 27.737100000     0.028046010  0.050645038  0.036052796

  position of ions in fractional coordinates (direct lattice)
     0.000000000  0.000000000  0.268034307
     0.499998654  0.000000000  0.268034307
     0.083333333  0.000000000  0.268034307
     0.583334567  0.000000000  0.268034307
     0.041666667  0.166666667  0.255754224
     0.541666611  0.166666667  0.255754224
     0.125000000  0.166666667  0.255754224
     0.624999720  0.166666667  0.255754224
     0.000000000  0.166666667  0.377426933
     0.499998654  0.166666667  0.377426933
     0.083333333  0.166666667  0.377426933
     0.583334567  0.166666667  0.377426933
     0.041666667  0.000000000  0.383704025
     0.541666611  0.000000000  0.383704025
     0.125000000  0.000000000  0.383704025
     0.624999720  0.000000000  0.383704025
     0.000000000  0.000000000  0.499999391
     0.499998654  0.000000000  0.499999391
     0.083333333  0.000000000  0.499999391
     0.583334567  0.000000000  0.499999391
     0.041666667  0.166666667  0.499999391
     0.541666611  0.166666667  0.499999391
     0.125000000  0.166666667  0.499999391
     0.624999720  0.166666667  0.499999391
     0.000000000  0.166666667  0.622571848
     0.499998654  0.166666667  0.622571848
     0.083333333  0.166666667  0.622571848
     0.583334567  0.166666667  0.622571848
     0.041666667  0.000000000  0.616294757
     0.541666611  0.000000000  0.616294757
     0.125000000  0.000000000  0.616294757
     0.624999720  0.000000000  0.616294757
     0.000000000  0.000000000  0.731964475
     0.499998654  0.000000000  0.731964475
     0.083333333  0.000000000  0.731964475
     0.583334567  0.000000000  0.731964475
     0.041666667  0.166666667  0.744244558
     0.541666611  0.166666667  0.744244558
     0.125000000  0.166666667  0.744244558
     0.624999720  0.166666667  0.744244558
     0.166666667  0.000000000  0.268034307
     0.666667676  0.000000000  0.268034307
     0.250000000  0.000000000  0.268034307
     0.750000785  0.000000000  0.268034307
     0.208333333  0.166666667  0.255754224
     0.708332829  0.166666667  0.255754224
     0.291666667  0.166666667  0.255754224
     0.791665937  0.166666667  0.255754224
     0.166666667  0.166666667  0.377426933
     0.666667676  0.166666667  0.377426933
     0.250000000  0.166666667  0.377426933
     0.750000785  0.166666667  0.377426933
     0.208333333  0.000000000  0.383704025
     0.708332829  0.000000000  0.383704025
     0.291666667  0.000000000  0.383704025
     0.791665937  0.000000000  0.383704025
     0.166666667  0.000000000  0.499999391
[...]
     0.000000000  0.000000000 27.737100000     0.000000000  0.000000000  0.036052796

  length of vectors
    35.655696000 19.745271000 27.737100000     0.028046010  0.050645038  0.036052796

 FORCES acting on ions
    electron-ion (+dipol)            ewald-force                    non-local-force                 convergence-correction
   0.234E+01 0.113E+01 0.429E+04   -.478E-03 -.260E-12 -.426E+04   -.117E-01 -.181E+00 0.717E+00   -.214E+01 -.113E+01 -.392E+02
   0.150E+01 0.101E+01 0.430E+04   0.641E-01 0.835E-12 -.426E+04   -.803E+00 -.136E+00 0.540E+00   -.136E+01 -.871E+00 -.411E+02
   -.104E+00 -.931E+00 0.429E+04   -.252E-02 0.185E-11 -.426E+04   -.409E+00 -.387E+00 0.106E+01   0.730E-01 0.799E+00 -.391E+02
   -.248E+01 0.932E-01 0.429E+04   -.587E-01 0.161E-12 -.426E+04   0.751E+00 0.116E+00 0.130E+01   0.250E+01 -.127E+00 -.401E+02
   -.233E+01 -.612E+00 0.421E+04   -.654E-02 0.982E-10 -.421E+04   0.834E-01 -.774E+00 0.112E+01   0.215E+01 0.465E+00 -.343E+01
   -.111E+01 0.771E+00 0.422E+04   0.233E-03 0.982E-10 -.421E+04   -.124E+00 -.252E+00 0.178E+01   0.106E+01 -.859E+00 -.470E+01
   0.918E+00 -.258E+00 0.422E+04   -.210E-02 0.978E-10 -.421E+04   -.772E-01 -.360E-01 0.139E+01   -.900E+00 0.308E+00 -.436E+01
   0.615E+00 0.132E+01 0.421E+04   0.904E-02 0.980E-10 -.421E+04   -.197E-01 -.359E+00 0.921E+00   -.387E+00 -.126E+01 -.232E+01
   0.472E+00 0.107E+01 0.222E+04   0.248E-02 0.133E-09 -.218E+04   0.215E+00 -.105E+00 0.988E+00   -.413E+00 -.860E+00 -.344E+02
   0.920E+00 -.315E+01 0.222E+04   0.686E-01 0.133E-09 -.218E+04   -.141E+00 0.178E+00 0.345E+00   -.850E+00 0.305E+01 -.354E+02
   -.881E+00 0.225E+01 0.222E+04   -.330E-02 0.133E-09 -.218E+04   -.975E+00 0.604E+00 0.293E+00   0.910E+00 -.202E+01 -.331E+02
   -.295E+01 -.211E+01 0.222E+04   -.616E-01 0.133E-09 -.218E+04   -.155E+00 0.166E+00 0.620E+00   0.307E+01 0.205E+01 -.346E+02
   -.242E+01 -.581E+00 0.216E+04   -.680E-02 0.348E-14 -.212E+04   0.297E+00 -.499E+00 -.894E+00   0.239E+01 0.471E+00 -.428E+02
   -.551E+01 -.169E+01 0.216E+04   0.114E-02 0.195E-12 -.212E+04   -.489E+00 -.465E+00 -.635E+00   0.535E+01 0.154E+01 -.458E+02
   -.333E+00 -.207E+01 0.215E+04   -.314E-02 0.670E-12 -.212E+04   -.475E-01 0.156E+00 0.606E+00   0.360E+00 0.187E+01 -.377E+02
   -.258E+01 -.544E+00 0.216E+04   0.262E-02 0.886E-13 -.212E+04   -.439E+00 0.790E-01 -.174E+00   0.270E+01 0.492E+00 -.403E+02
   0.234E+01 0.562E+00 -.702E+00   0.220E-02 0.485E-12 -.143E-05   -.287E+00 -.114E+00 -.364E-01   -.231E+01 -.608E+00 0.784E+00
   -.165E+01 -.100E+01 0.271E+00   0.705E-01 0.203E-12 -.143E-05   0.178E+00 0.136E+00 0.895E-01   0.156E+01 0.971E+00 -.246E+00
   -.114E+02 -.130E+01 -.325E+00   -.356E-02 -.438E-12 -.143E-05   0.349E-01 -.593E+00 0.663E+00   0.110E+02 0.119E+01 0.271E+00
   -.132E+02 0.134E+01 0.136E+01   -.639E-01 0.736E-12 -.143E-05   -.600E+00 -.404E+00 -.399E+00   0.129E+02 -.119E+01 -.120E+01
   -.430E+01 -.424E+01 0.141E+01   -.672E-02 0.128E-09 -.100E-05   -.747E+00 -.239E+00 -.143E+00   0.410E+01 0.414E+01 -.132E+01
   -.655E+01 -.918E+01 0.423E+00   0.104E-02 0.129E-09 -.100E-05   -.307E+00 -.631E+00 -.253E-01   0.644E+01 0.899E+01 -.369E+00
   -.378E+01 -.658E+00 -.280E+00   -.336E-02 0.128E-09 -.100E-05   0.102E+01 -.412E+00 0.357E+00   0.370E+01 0.562E+00 0.238E+00
   -.387E+01 -.403E+01 0.145E+00   0.131E-02 0.128E-09 -.100E-05   -.499E+00 0.123E-01 -.351E+00   0.383E+01 0.396E+01 -.207E+00
   0.339E+01 0.126E+01 -.222E+04   0.248E-02 0.133E-09 0.218E+04   0.260E-01 -.614E+00 0.667E-01   -.319E+01 -.119E+01 0.361E+02
   -.427E+01 -.266E+01 -.222E+04   0.686E-01 0.133E-09 0.218E+04   0.106E+00 -.345E+00 -.322E+00   0.405E+01 0.256E+01 0.364E+02
   -.158E+01 0.127E+01 -.222E+04   -.330E-02 0.133E-09 0.218E+04   -.606E+00 -.214E+00 0.259E+00   0.146E+01 -.123E+01 0.338E+02
   -.119E+01 -.157E+01 -.222E+04   -.616E-01 0.133E-09 0.218E+04   -.536E+00 0.911E-01 0.222E+00   0.131E+01 0.157E+01 0.332E+02
   0.196E+00 0.200E+01 -.216E+04   -.680E-02 -.125E-11 0.212E+04   -.100E+00 -.277E+00 0.134E+01   -.266E+00 -.186E+01 0.424E+02
   -.452E+01 0.108E+01 -.216E+04   0.114E-02 0.496E-12 0.212E+04   -.126E+00 -.149E+00 0.768E+00   0.444E+01 -.999E+00 0.458E+02
   -.401E+00 -.195E+01 -.215E+04   -.314E-02 -.305E-12 0.212E+04   -.579E-02 -.600E+00 0.563E+00   0.403E+00 0.179E+01 0.347E+02
   -.221E+01 0.224E+01 -.215E+04   0.262E-02 -.383E-12 0.212E+04   0.712E-01 -.495E+00 0.127E+01   0.234E+01 -.210E+01 0.380E+02
   0.131E+01 0.821E+00 -.429E+04   -.478E-03 -.905E-13 0.426E+04   0.706E+00 0.505E+00 -.921E+00   -.123E+01 -.829E+00 0.383E+02
   -.308E+01 0.160E+00 -.430E+04   0.641E-01 0.380E-12 0.426E+04   0.512E+00 -.186E+00 -.504E+00   0.290E+01 -.202E+00 0.411E+02
   0.325E+01 0.622E+00 -.429E+04   -.252E-02 -.166E-12 0.426E+04   -.206E+00 0.192E+00 -.681E+00   -.304E+01 -.585E+00 0.400E+02
   0.105E+01 0.113E+01 -.430E+04   -.587E-01 0.207E-11 0.426E+04   -.365E+00 0.960E-01 -.182E+01   -.807E+00 -.104E+01 0.425E+02
   -.260E+00 0.698E+00 -.421E+04   -.654E-02 0.981E-10 0.421E+04   0.283E+00 0.226E+00 -.174E+01   0.198E+00 -.528E+00 0.370E+01
   -.110E+01 0.980E+00 -.422E+04   0.233E-03 0.979E-10 0.421E+04   -.177E+00 0.305E+00 -.179E+01   0.110E+01 -.105E+01 0.574E+01
   0.193E+01 -.519E-01 -.421E+04   -.210E-02 0.977E-10 0.421E+04   -.575E-01 0.129E+00 -.149E+01   -.182E+01 0.128E+00 0.305E+01
   -.207E+01 0.115E+01 -.422E+04   0.904E-02 0.978E-10 0.421E+04   0.286E+00 -.192E+00 -.156E+01   0.203E+01 -.108E+01 0.580E+01
   0.156E+01 0.132E+00 0.429E+04   -.196E-02 -.984E-12 -.426E+04   0.590E-01 0.418E-01 0.145E+01   -.156E+01 -.187E-02 -.388E+02
   -.151E+01 0.128E+01 0.429E+04   -.406E-01 0.345E-12 -.426E+04   -.170E+00 -.284E+00 0.983E+00   0.154E+01 -.136E+01 -.387E+02
   0.825E+00 0.147E+01 0.429E+04   -.185E-02 -.867E-12 -.426E+04   -.653E-01 -.487E-01 0.982E+00   -.866E+00 -.132E+01 -.391E+02
   -.148E+01 0.349E+01 0.429E+04   -.314E-01 -.256E-11 -.426E+04   0.123E+00 0.473E-01 0.942E+00   0.162E+01 -.344E+01 -.386E+02
   0.203E+00 -.133E+01 0.422E+04   -.177E-02 0.982E-10 -.421E+04   -.128E-01 -.172E+00 0.119E+01   -.321E+00 0.133E+01 -.495E+01
   -.258E+01 -.122E+00 0.421E+04   0.183E-01 0.983E-10 -.421E+04   -.111E+00 -.120E+00 0.153E+01   0.237E+01 0.384E-01 -.137E+01
   0.507E+00 -.238E+01 0.422E+04   -.181E-02 0.979E-10 -.421E+04   -.314E+00 0.318E+00 0.132E+01   -.524E+00 0.230E+01 -.567E+01
   -.370E+01 -.224E+00 0.422E+04   0.266E-01 0.980E-10 -.421E+04   0.427E+00 -.161E+00 0.195E+01   0.341E+01 0.142E+00 -.461E+01
   0.468E+00 0.185E+01 0.221E+04   -.275E-02 0.134E-09 -.218E+04   -.181E+00 0.938E-01 0.757E+00   -.524E+00 -.166E+01 -.313E+02
   -.657E+00 -.442E+00 0.222E+04   -.419E-01 0.132E-09 -.218E+04   -.139E+00 -.145E+00 0.587E+00   0.793E+00 0.523E+00 -.330E+02
   0.866E+00 0.392E+00 0.221E+04   -.248E-02 0.133E-09 -.218E+04   -.648E+00 0.276E+00 0.472E+00   -.849E+00 -.176E+00 -.314E+02
   -.143E+01 -.303E-01 0.222E+04   -.304E-01 0.133E-09 -.218E+04   -.382E-01 0.480E+00 0.531E+00   0.138E+01 0.601E-01 -.330E+02
   0.191E+01 -.799E+00 0.215E+04   -.259E-02 -.195E-12 -.212E+04   0.281E+00 0.509E-02 -.973E+00   -.187E+01 0.705E+00 -.364E+02
   -.509E+01 0.173E+01 0.215E+04   0.147E-01 -.447E-12 -.212E+04   -.294E+00 0.219E+00 -.764E+00   0.480E+01 -.180E+01 -.387E+02
   0.387E+01 -.630E+00 0.215E+04   -.252E-02 -.286E-12 -.212E+04   0.907E-03 -.754E+00 -.356E+00   -.372E+01 0.645E+00 -.366E+02
   -.117E+01 0.343E+01 0.215E+04   0.256E-01 0.533E-12 -.212E+04   0.103E+01 -.157E+00 0.936E-01   0.114E+01 -.344E+01 -.370E+02
   -.934E+00 -.184E+01 -.499E+00   -.302E-02 -.361E-13 -.143E-05   0.368E+00 -.274E+00 0.101E+00   0.874E+00 0.184E+01 0.426E+00
   -.293E+01 0.185E+01 0.669E+00   -.448E-01 0.202E-11 -.143E-05   0.118E+01 -.257E+00 0.844E+00   0.308E+01 -.176E+01 -.607E+00
   0.224E+01 -.123E+01 -.178E+01   -.270E-02 0.826E-12 -.143E-05   -.318E+00 -.346E+00 -.328E+00   -.232E+01 0.127E+01 0.157E+01
   -.225E+01 0.169E+01 0.388E+01   -.328E-01 0.689E-12 -.143E-05   0.308E+00 0.527E+00 0.421E-01   0.235E+01 -.169E+01 -.365E+01
[...]
   -.139E+01 -.143E+00 -.172E+04   -.204E-02 -.608E-10 0.170E+04   -.583E-01 0.302E-01 0.841E+00   0.126E+01 0.230E+00 0.246E+02
   0.139E+01 0.218E+00 -.172E+04   -.308E-02 -.600E-10 0.170E+04   -.774E-01 -.542E-01 0.126E+01   -.129E+01 -.185E+00 0.222E+02
   -.178E+01 -.321E+02 -.222E+04   -.119E-02 0.410E+02 0.222E+04   -.667E-01 -.365E+01 -.455E+01   0.188E+01 -.361E+01 0.568E+01
   -.870E+00 -.334E+02 -.222E+04   0.181E-01 0.410E+02 0.222E+04   -.224E+00 -.379E+01 -.419E+01   0.104E+01 -.217E+01 0.557E+01
   -.450E+00 -.332E+02 -.222E+04   -.764E-03 0.410E+02 0.222E+04   -.232E+00 -.359E+01 -.426E+01   0.449E+00 -.262E+01 0.603E+01
   0.104E+01 -.318E+02 -.222E+04   0.234E-01 0.410E+02 0.222E+04   0.556E+00 -.399E+01 -.455E+01   -.112E+01 -.382E+01 0.486E+01
   -.132E+01 0.311E+02 -.222E+04   -.119E-02 -.410E+02 0.222E+04   -.864E-01 0.360E+01 -.440E+01   0.121E+01 0.470E+01 0.545E+01
   -.275E+01 0.344E+02 -.222E+04   0.181E-01 -.410E+02 0.222E+04   0.398E+00 0.366E+01 -.424E+01   0.243E+01 0.127E+01 0.482E+01
   -.162E+01 0.313E+02 -.222E+04   -.764E-03 -.410E+02 0.222E+04   0.267E+00 0.396E+01 -.414E+01   0.143E+01 0.426E+01 0.617E+01
   0.241E+01 0.323E+02 -.222E+04   0.234E-01 -.410E+02 0.222E+04   -.286E+00 0.407E+01 -.467E+01   -.217E+01 0.310E+01 0.451E+01
   -.664E+00 -.675E+00 -.255E+04   -.747E-03 -.352E-10 0.260E+04   0.213E+00 -.360E+00 -.173E+02   0.548E+00 0.877E+00 -.194E+02
   -.211E+01 0.888E+00 -.255E+04   -.179E-01 -.349E-10 0.260E+04   -.582E-01 -.129E+00 -.172E+02   0.201E+01 -.782E+00 -.227E+02
   -.166E+01 -.644E+00 -.255E+04   -.119E-02 -.348E-10 0.260E+04   -.140E-01 0.226E+00 -.170E+02   0.178E+01 0.661E+00 -.206E+02
   0.200E+01 0.628E+00 -.255E+04   -.141E-01 -.349E-10 0.260E+04   -.229E-01 -.118E+00 -.169E+02   -.191E+01 -.617E+00 -.228E+02
   -.318E+01 -.321E+01 0.200E+03   -.864E-11 0.167E-10 -.705E-10   -.342E+01 -.240E+01 0.886E+01   0.219E+01 0.304E+01 -.203E+03

 POSITION                                       TOTAL-FORCE (eV/Angst)
      0.00000      0.00000      7.43449         0.190418     -0.186541     -2.635518
     17.82780      0.00000      7.43449        -0.590946      0.002291     -2.793275
      2.97131      0.00000      7.43449        -0.439116     -0.516654     -2.116327
     20.79920      0.00000      7.43449         0.712102      0.084136     -1.952249
      1.48565      3.29088      7.09388        -0.097157     -0.919348      1.013778
     19.31350      3.29088      7.09388        -0.174749     -0.337404      1.915188
      4.45696      3.29088      7.09388        -0.057244      0.016814      1.478450
     22.28480      3.29088      7.09388         0.221757     -0.292417      0.845617
      0.00000      3.29088     10.46873         0.279839      0.110997      2.573851
     17.82780      3.29088     10.46873         0.001900      0.081074      1.754628
      2.97131      3.29088     10.46873        -0.944911      0.842024      1.828384
     20.79920      3.29088     10.46873        -0.098841      0.106973      2.308702
      1.48565      0.00000     10.64284         0.265970     -0.606028     -1.670940
     19.31350      0.00000     10.64284        -0.651783     -0.608144     -1.309364
      4.45696      0.00000     10.64284        -0.019500     -0.039962     -0.105915
     22.28480      0.00000     10.64284        -0.313222      0.029183     -0.929752
      0.00000      0.00000     13.86853        -0.251425     -0.157799      0.040369
     17.82780      0.00000     13.86853         0.157571      0.108736      0.109257
      2.97131      0.00000     13.86853        -0.376400     -0.704382      0.603232
     20.79920      0.00000     13.86853        -0.958651     -0.251600     -0.249257
      1.48565      3.29088     13.86853        -0.950581     -0.341361     -0.055079
     19.31350      3.29088     13.86853        -0.415971     -0.816121      0.024003
      4.45696      3.29088     13.86853         0.944659     -0.506300      0.309661
     22.28480      3.29088     13.86853        -0.533028     -0.055393     -0.418614
      0.00000      3.29088     17.26834         0.236165     -0.541898     -1.597976
     17.82780      3.29088     17.26834        -0.047004     -0.441611     -2.014337
      2.97131      3.29088     17.26834        -0.729851     -0.172226     -1.290552
     20.79920      3.29088     17.26834        -0.474519      0.099194     -1.208164
      1.48565      0.00000     17.09423        -0.172369     -0.132323      2.141696
     19.31350      0.00000     17.09423        -0.206313     -0.070196      1.368842
      4.45696      0.00000     17.09423        -0.002784     -0.750964      1.632057
     22.28480      0.00000     17.09423         0.206068     -0.345080      2.178010
      0.00000      0.00000     20.30257         0.788959      0.499586      2.321819
     17.82780      0.00000     20.30257         0.394962     -0.225871      2.806326
      2.97131      0.00000     20.30257         0.002845      0.231455      2.503673
     20.79920      0.00000     20.30257        -0.178482      0.182462      1.173244
      1.48565      3.29088     20.64319         0.218223      0.398814     -1.856397
     19.31350      3.29088     20.64319        -0.178568      0.238686     -1.928224
      4.45696      3.29088     20.64319         0.054735      0.207948     -1.488874
     22.28480      3.29088     20.64319         0.266596     -0.120736     -1.757636
      5.94262      0.00000      7.43449         0.061512      0.174536     -1.727122
     23.77050      0.00000      7.43449        -0.180437     -0.361257     -2.389448
      8.91392      0.00000      7.43449        -0.104062      0.107125     -2.326450
     26.74180      0.00000      7.43449         0.237412      0.092662     -2.294721
      7.42827      3.29088      7.09388        -0.127952     -0.169618      1.273146
     25.25610      3.29088      7.09388        -0.297113     -0.201362      1.312448
     10.39958      3.29088      7.09388        -0.328655      0.240814      1.540253
     28.22740      3.29088      7.09388         0.169294     -0.240786      2.166303
      5.94262      3.29088     10.46873        -0.235726      0.291050      2.276592
     23.77050      3.29088     10.46873        -0.040640     -0.061750      2.304695
      8.91392      3.29088     10.46873        -0.629035      0.493756      2.105099
     26.74180      3.29088     10.46873        -0.116122      0.512258      2.246119
      7.42827      0.00000     10.64284         0.328903     -0.086009     -1.753040
     25.25610      0.00000     10.64284        -0.565134      0.150740     -1.580513
     10.39958      0.00000     10.64284         0.151977     -0.736617     -1.196494
     28.22740      0.00000     10.64284         1.027668     -0.170948     -0.759570
      5.94262      0.00000     13.86853         0.308662     -0.271595      0.022197
     23.77050      0.00000     13.86853         1.288208     -0.159610      0.902040
      8.91392      0.00000     13.86853        -0.395831     -0.308071     -0.544080
     26.74180      0.00000     13.86853         0.380673      0.532356      0.269536
[...]
     29.71310     16.45439     19.16122        -0.053256      0.055969      2.035526
     14.85654     16.45439     19.16122        -0.182673      0.119793      1.996152
     32.68440     16.45439     19.16122         0.023176     -0.018514      2.123535
     13.37089     14.39677     20.62693         0.035807      1.618033      0.511269
     31.19870     14.39677     20.62693        -0.030897      1.635037      0.552303
     16.34219     14.39677     20.62693        -0.230879      1.600058      0.612620
     34.17000     14.39677     20.62693         0.500134      1.378912      0.570799
     13.37089     18.51202     20.62693        -0.194079     -1.616452      0.723001
     31.19870     18.51202     20.62693         0.093288     -1.719548      0.664346
     16.34219     18.51202     20.62693         0.072010     -1.464971      0.813705
     34.17000     18.51202     20.62693        -0.020954     -1.560012      0.678229
     11.88523     16.45439     21.74323         0.100528     -0.155008      3.619968
     29.71310     16.45439     21.74323        -0.174126     -0.020540      3.738394
     14.85654     16.45439     21.74323         0.109903      0.245272      3.804504
     32.68440     16.45439     21.74323         0.062251     -0.104788      3.716420
    total drift:                               -4.410290     -2.562007      5.650698

  FREE ENERGIE OF THE ION-ELECTRON SYSTEM (eV)
  free  energy   TOTEN  =     -3093.03010970 eV

  energy  without entropy=    -3090.40612930  energy(sigma->0) =    -3091.71811950